p tw 692 1016
1 2
1 73
1 74
3 4
3 74
3 75
5 6
5 100
7 8
7 101
9 10
9 76
9 77
11 12
11 77
11 78
13 14
13 102
15 16
15 103
17 18
17 79
17 80
19 20
19 80
19 81
21 22
21 104
23 24
23 105
25 26
25 82
25 83
27 28
27 83
27 84
29 30
29 106
31 32
31 107
33 34
33 85
33 86
35 36
35 86
35 87
37 38
37 108
39 40
39 109
41 42
41 88
41 89
43 44
43 89
43 90
45 46
45 110
47 48
47 111
49 50
49 91
49 92
51 52
51 92
51 93
53 54
53 112
55 56
55 113
57 58
57 94
57 95
59 60
59 95
59 96
61 62
61 114
63 64
63 115
65 66
65 97
65 98
67 68
67 98
67 99
69 70
69 116
71 72
71 117
73 74
73 136
74 75
75 137
76 77
76 138
77 78
78 139
79 80
79 124
79 125
80 81
81 140
82 83
82 119
82 120
83 84
84 141
85 86
85 131
85 132
86 87
87 142
88 89
88 143
89 90
90 127
90 128
91 92
91 144
92 93
93 122
93 123
94 95
94 145
95 96
96 134
96 135
97 98
97 146
98 99
99 147
100 149
100 150
101 220
101 221
102 118
102 119
103 223
103 224
104 130
104 131
105 226
105 227
106 125
106 126
107 197
107 198
108 231
108 232
109 121
109 122
110 158
110 159
111 133
111 134
112 161
112 162
113 128
113 129
114 186
114 187
115 241
115 242
116 164
116 165
117 244
117 245
118 119
118 169
119 120
120 171
121 122
121 174
122 123
123 160
123 161
124 125
124 170
125 126
126 155
126 156
127 128
127 157
127 158
128 129
129 178
130 131
130 152
130 153
131 132
132 172
133 134
133 176
134 135
135 180
136 166
137 148
137 149
138 167
139 168
140 151
140 152
141 154
141 155
142 173
143 175
144 177
145 179
146 181
147 163
147 164
148 149
148 209
149 150
150 191
150 192
151 152
151 210
152 153
153 201
153 202
154 155
154 188
154 189
155 156
156 212
157 158
157 198
157 199
158 159
159 214
160 161
160 215
161 162
162 194
162 195
163 164
163 218
164 165
165 204
165 205
166 182
166 183
167 200
167 201
168 349
168 350
169 183
169 184
170 192
170 193
171 211
172 213
173 206
173 207
174 189
174 190
175 265
175 266
176 207
176 208
177 185
177 186
178 216
179 203
179 204
180 217
181 195
181 196
182 183
182 246
183 184
184 222
184 223
185 186
185 254
186 187
187 240
187 241
188 189
188 251
189 190
190 232
190 233
191 192
191 219
191 220
192 193
193 249
194 195
194 237
194 238
195 196
196 257
197 198
197 229
197 230
198 199
199 253
200 201
200 248
201 202
202 225
202 226
203 204
203 256
204 205
205 243
205 244
206 207
206 252
207 208
208 235
208 236
209 247
210 250
211 328
211 329
212 228
212 229
213 301
213 302
214 234
214 235
215 255
216 238
216 239
217 352
217 353
218 258
219 220
219 278
220 221
221 279
222 223
222 281
223 224
224 262
224 263
225 226
225 283
226 227
227 274
227 275
228 229
228 284
229 230
230 269
230 270
231 232
231 259
231 260
232 233
233 285
234 235
234 271
234 272
235 236
236 287
237 238
237 266
237 267
238 239
239 288
240 241
240 289
241 242
242 290
243 244
243 292
244 245
245 293
246 277
247 331
247 332
248 280
249 282
250 268
250 269
251 263
251 264
252 275
252 276
253 286
254 260
254 261
255 334
255 335
256 272
256 273
257 291
258 344
258 345
259 260
259 320
260 261
261 323
262 263
262 297
262 298
263 264
264 317
265 266
265 304
265 305
266 267
267 324
268 269
268 314
269 270
270 300
270 301
271 272
271 321
272 273
273 307
273 308
274 275
274 316
275 276
276 319
277 365
277 366
278 312
279 294
279 295
280 295
280 296
281 313
282 298
282 299
283 315
284 318
285 303
285 304
286 381
286 382
287 322
288 306
288 307
289 325
290 309
290 310
291 310
291 311
292 326
293 327
294 295
294 340
294 341
295 296
296 355
297 298
297 332
297 333
298 299
299 356
300 301
300 358
301 302
302 346
302 347
303 304
303 360
304 305
305 338
305 339
306 307
306 343
306 344
307 308
308 363
309 310
309 335
309 336
310 311
311 364
312 441
312 442
313 403
313 404
314 341
314 342
315 415
315 416
316 350
316 351
317 357
318 337
318 338
319 359
320 329
320 330
321 347
321 348
322 418
322 419
323 361
324 362
325 478
325 479
326 456
326 457
327 353
327 354
328 329
328 374
328 375
329 330
330 397
331 332
331 366
331 367
332 333
333 393
334 335
334 384
334 385
335 336
336 401
337 338
337 395
338 339
339 380
339 381
340 341
340 392
341 342
342 372
342 373
343 344
343 400
344 345
345 390
345 391
346 347
346 377
346 378
347 348
348 399
349 350
349 369
349 370
350 351
351 394
352 353
352 387
352 388
353 354
354 402
355 368
355 369
356 371
356 372
357 375
357 376
358 396
359 378
359 379
360 398
361 383
361 384
362 453
362 454
363 386
363 387
364 389
364 390
365 366
365 421
366 367
367 422
368 369
368 424
369 370
370 425
371 372
371 409
371 410
372 373
373 427
374 375
374 404
374 405
375 376
376 429
377 378
377 416
377 417
378 379
379 430
380 381
380 432
381 382
382 412
382 413
383 384
383 434
384 385
385 407
385 408
386 387
386 435
387 388
388 419
388 420
389 390
389 437
390 391
391 438
392 423
393 426
394 428
395 410
395 411
396 489
396 490
397 431
398 406
398 407
399 433
400 413
400 414
401 436
402 439
403 404
403 461
404 405
405 463
406 407
406 466
407 408
408 452
408 453
409 410
409 462
410 411
411 447
411 448
412 413
412 449
412 450
413 414
414 470
415 416
415 444
415 445
416 417
417 464
418 419
418 468
419 420
420 472
421 458
422 440
422 441
423 512
423 513
424 459
425 460
426 515
426 516
427 443
427 444
428 518
428 519
429 446
429 447
430 465
431 523
431 524
432 467
433 450
433 451
434 469
435 471
436 533
436 534
437 473
438 455
438 456
439 536
439 537
440 441
440 501
441 442
442 483
442 484
443 444
443 502
444 445
445 493
445 494
446 447
446 480
446 481
447 448
448 504
449 450
449 490
449 491
450 451
451 506
452 453
452 507
453 454
454 486
454 487
455 456
455 510
456 457
457 496
457 497
458 474
458 475
459 492
459 493
460 641
460 642
461 475
461 476
462 484
462 485
463 503
464 505
465 498
465 499
466 481
466 482
467 557
467 558
468 499
468 500
469 477
469 478
470 508
471 495
471 496
472 509
473 487
473 488
474 475
474 538
475 476
476 514
476 515
477 478
477 546
478 479
479 532
479 533
480 481
480 543
481 482
482 524
482 525
483 484
483 511
483 512
484 485
485 541
486 487
486 529
486 530
487 488
488 549
489 490
489 521
489 522
490 491
491 545
492 493
492 540
493 494
494 517
494 518
495 496
495 548
496 497
497 535
497 536
498 499
498 544
499 500
500 527
500 528
501 539
502 542
503 620
503 621
504 520
504 521
505 593
505 594
506 526
506 527
507 547
508 530
508 531
509 644
509 645
510 550
511 512
511 570
512 513
513 571
514 515
514 573
515 516
516 554
516 555
517 518
517 575
518 519
519 566
519 567
520 521
520 576
521 522
522 561
522 562
523 524
523 551
523 552
524 525
525 577
526 527
526 563
526 564
527 528
528 579
529 530
529 558
529 559
530 531
531 580
532 533
532 581
533 534
534 582
535 536
535 584
536 537
537 585
538 569
539 623
539 624
540 572
541 574
542 560
542 561
543 555
543 556
544 567
544 568
545 578
546 552
546 553
547 626
547 627
548 564
548 565
549 583
550 636
550 637
551 552
551 612
552 553
553 615
554 555
554 589
554 590
555 556
556 609
557 558
557 596
557 597
558 559
559 616
560 561
560 606
561 562
562 592
562 593
563 564
563 613
564 565
565 599
565 600
566 567
566 608
567 568
568 611
569 657
570 604
571 586
571 587
572 587
572 588
573 605
574 590
574 591
575 607
576 610
577 595
577 596
578 678
579 614
580 598
580 599
581 617
582 601
582 602
583 602
583 603
584 618
585 619
586 587
586 632
586 633
587 588
588 647
589 590
589 624
589 625
590 591
591 648
592 593
592 650
593 594
594 638
594 639
595 596
595 652
596 597
597 630
597 631
598 599
598 635
598 636
599 600
600 655
601 602
601 627
601 628
602 603
603 656
604 659
605 663
606 633
606 634
607 667
608 642
608 643
609 649
610 629
610 630
611 651
612 621
612 622
613 639
613 640
614 680
615 653
616 654
617 687
618 691
619 645
619 646
620 621
620 669
621 622
622 675
623 624
623 658
624 625
625 664
626 627
626 682
627 628
628 688
629 630
629 671
630 631
631 677
632 633
632 660
633 634
634 666
635 636
635 684
636 637
637 690
638 639
638 673
639 640
640 679
641 642
641 662
642 643
643 668
644 645
644 686
645 646
646 692
647 661
648 665
649 670
650 672
651 674
652 676
653 681
654 683
655 685
656 689
